unsat
(:max-memory          19.39
 :memory              18.85
 :num-allocs          234506
 :rlimit-count        36518
 :solve-eqs-elim-vars 68
 :solve-eqs-steps     306
 :time                0.01
 :total-time          0.03)
